
Gurobi 9.1.2 (win64, Java) logging started Fri Nov 12 01:22:57 2021

Academic license - for non-commercial use only - expires 2022-10-30
Gurobi Optimizer version 9.1.2 build v9.1.2rc0 (win64)
Thread count: 6 physical cores, 12 logical processors, using up to 12 threads
Optimize a model with 50 rows, 400 columns and 800 nonzeros
Model fingerprint: 0xd262ce1d
Variable types: 0 continuous, 400 integer (400 binary)
Coefficient statistics:
  Matrix range     [1e+00, 1e+03]
  Objective range  [2e+02, 9e+02]
  Bounds range     [1e+00, 1e+00]
  RHS range        [1e+00, 1e+03]
Found heuristic solution: objective 11615.000000
Presolve removed 1 rows and 50 columns
Presolve time: 0.00s
Presolved: 49 rows, 350 columns, 700 nonzeros
Variable types: 0 continuous, 350 integer (350 binary)
Presolved: 49 rows, 350 columns, 700 nonzeros


Root relaxation: objective 1.287708e+04, 157 iterations, 0.00 seconds

    Nodes    |    Current Node    |     Objective Bounds      |     Work
 Expl Unexpl |  Obj  Depth IntInf | Incumbent    BestBd   Gap | It/Node Time

     0     0 12877.0790    0   14 11615.0000 12877.0790  10.9%     -    0s
H    0     0                    12249.000000 12877.0790  5.13%     -    0s
H    0     0                    12397.000000 12877.0790  3.87%     -    0s
H    0     0                    12746.000000 12875.4815  1.02%     -    0s
     0     0 12857.8973    0   27 12746.0000 12857.8973  0.88%     -    0s
     0     0 12857.8973    0   23 12746.0000 12857.8973  0.88%     -    0s
     0     0 12857.6872    0   26 12746.0000 12857.6872  0.88%     -    0s
     0     0 12857.6872    0   15 12746.0000 12857.6872  0.88%     -    0s
     0     0 12857.6872    0   12 12746.0000 12857.6872  0.88%     -    0s
     0     0 12857.6872    0   20 12746.0000 12857.6872  0.88%     -    0s
     0     0 12857.6872    0   23 12746.0000 12857.6872  0.88%     -    0s
     0     0 12857.6872    0   33 12746.0000 12857.6872  0.88%     -    0s
     0     0 12857.6872    0   22 12746.0000 12857.6872  0.88%     -    0s
     0     2 12857.6872    0   20 12746.0000 12857.6872  0.88%     -    0s
H 3448  1960                    12784.000000 12854.1350  0.55%  15.8    2s
  6333  3897 12844.8847   49   40 12784.0000 12854.1350  0.55%  27.8    5s
 17200 11868 12851.1918   41   52 12784.0000 12853.8955  0.55%  37.9   10s
 24832 15623 12850.5473   47   36 12784.0000 12850.5473  0.52%  41.3   15s
 34530 19179 12832.8847   49   55 12784.0000 12850.5473  0.52%  48.1   20s
 43546 22781 12850.5473   46   76 12784.0000 12850.5473  0.52%  53.7   25s
 51640 25690 12795.6272   75   49 12784.0000 12850.5473  0.52%  57.1   30s
 55133 25902 12835.8299   41   23 12784.0000 12842.7687  0.46%  58.8   35s
 61845 28610 12840.0683   57   74 12784.0000 12842.0921  0.45%  57.5   40s
H64606 24514                    12838.000000 12842.0921  0.03%  58.0   41s
 71933 25360 12842.0921   74   70 12838.0000 12842.0921  0.03%  63.0   45s
 80659 25896 12839.6660   80   71 12838.0000 12842.0921  0.03%  69.5   50s
 88587 26427     cutoff   64      12838.0000 12842.0921  0.03%  74.2   55s

Cutting planes:
  Gomory: 10
  Cover: 17
  Clique: 3
  MIR: 39
  StrongCG: 36
  Flow cover: 9
  Zero half: 4
  RLT: 2

Explored 90446 nodes (6806645 simplex iterations) in 55.51 seconds
Thread count was 12 (of 12 available processors)

Solution count 6: 12838 12784 12746 ... 11615

Optimal solution found (tolerance 1.00e-12)
Best objective 1.283800000000e+04, best bound 1.283800000000e+04, gap 0.0000%
